p cnf 598 1917
c t mc
-4 2 0
-4 3 0
-2 -3 4 0
8 6 -9 0
-8 -6 -9 0
8 -6 9 0
-8 6 9 0
10 7 0
10 9 0
-7 -9 -10 0
-11 -6 0
-11 10 0
6 -10 11 0
-5 -11 -12 0
5 11 -12 0
-5 11 12 0
5 -11 12 0
13 12 0
13 4 0
-12 -4 -13 0
-17 15 0
-17 16 0
-15 -16 17 0
-18 14 0
-18 -17 0
-14 17 18 0
19 13 0
19 -18 0
-13 18 -19 0
22 -20 0
22 21 0
20 -21 -22 0
-24 -2 0
-24 -23 0
2 23 24 0
-25 22 0
-25 24 0
-22 -24 25 0
-27 25 0
-27 26 0
-25 -26 27 0
5 -28 -29 0
-5 28 -29 0
5 28 29 0
-5 -28 29 0
29 -7 -30 0
-29 7 -30 0
29 7 30 0
-29 -7 30 0
-31 27 0
-31 30 0
-27 -30 31 0
32 31 0
32 17 0
-31 -17 -32 0
33 -19 0
33 32 0
19 -32 -33 0
9 -34 -35 0
-9 34 -35 0
9 34 35 0
-9 -34 35 0
-10 5 -36 0
10 -5 -36 0
-10 -5 36 0
10 5 36 0
-39 37 0
-39 -38 0
-37 38 39 0
36 39 -40 0
-36 -39 -40 0
36 -39 40 0
-36 39 40 0
40 41 -42 0
-40 -41 -42 0
40 -41 42 0
-40 41 42 0
43 35 0
43 -42 0
-35 42 -43 0
44 -33 0
44 43 0
33 -43 -44 0
4 -44 -45 0
-4 44 -45 0
4 44 45 0
-4 -44 45 0
1 -45 -46 0
-1 45 -46 0
1 45 46 0
-1 -45 46 0
-47 -34 -48 0
47 34 -48 0
-47 34 48 0
47 -34 48 0
-49 -48 0
-49 7 0
48 -7 49 0
50 49 0
50 38 0
-49 -38 -50 0
-21 5 -51 0
21 -5 -51 0
-21 -5 51 0
21 5 51 0
-52 -17 0
-52 -51 0
17 51 52 0
-54 -53 0
-54 22 0
53 -22 54 0
55 -52 0
55 54 0
52 -54 -55 0
56 55 0
56 -26 0
-55 26 -56 0
50 56 -57 0
-50 -56 -57 0
50 -56 57 0
-50 56 57 0
58 3 0
58 -2 0
-3 2 -58 0
59 57 0
59 58 0
-57 -58 -59 0
60 -2 0
60 -59 0
2 59 -60 0
-61 -36 0
-61 60 0
36 -60 61 0
-62 5 0
-62 -61 0
-5 61 62 0
63 -46 0
63 62 0
46 -62 -63 0
65 -64 0
65 25 0
64 -25 -65 0
8 53 -66 0
-8 -53 -66 0
8 -53 66 0
-8 53 66 0
-67 66 0
-67 -66 0
65 67 -68 0
-65 -67 -68 0
65 -67 68 0
-65 67 68 0
-69 5 0
-69 47 0
-5 -47 69 0
-70 -52 0
-70 -38 0
52 38 70 0
71 69 0
71 -70 0
-69 70 -71 0
-72 -48 0
-72 -29 0
48 29 72 0
71 72 -73 0
-71 -72 -73 0
71 -72 73 0
-71 72 73 0
75 73 0
75 -74 0
-73 74 -75 0
-68 -75 -76 0
68 75 -76 0
-68 75 76 0
68 -75 76 0
29 -10 -77 0
-29 10 -77 0
29 10 77 0
-29 -10 77 0
-78 -77 0
-78 17 0
77 -17 78 0
79 78 0
79 -40 0
-78 40 -79 0
65 6 -80 0
-65 -6 -80 0
65 -6 80 0
-65 6 80 0
81 80 0
81 11 0
-80 -11 -81 0
-82 79 0
-82 -81 0
-79 81 82 0
82 -28 -83 0
-82 28 -83 0
82 28 83 0
-82 -28 83 0
-84 -39 0
-84 -38 0
39 38 84 0
85 65 0
85 84 0
-65 -84 -85 0
-86 -1 0
-86 -67 0
1 67 86 0
-66 -48 -87 0
66 48 -87 0
-66 48 87 0
66 -48 87 0
86 -87 -88 0
-86 87 -88 0
86 87 88 0
-86 -87 88 0
47 89 0
-47 89 0
90 3 0
90 28 0
-3 -28 -90 0
91 -78 0
91 90 0
78 -90 -91 0
92 89 0
92 -91 0
-89 91 -92 0
88 92 -93 0
-88 -92 -93 0
88 -92 93 0
-88 92 93 0
-93 42 -94 0
93 -42 -94 0
-93 -42 94 0
93 42 94 0
85 -94 -95 0
-85 94 -95 0
85 94 95 0
-85 -94 95 0
-96 -83 0
-96 -95 0
83 95 96 0
-97 73 0
-97 64 0
-73 -64 97 0
-98 97 0
-98 -26 0
-97 26 98 0
99 47 0
99 -52 0
-47 52 -99 0
99 -22 -100 0
-99 22 -100 0
99 22 100 0
-99 -22 100 0
-101 70 0
-101 -100 0
-70 100 101 0
-102 -48 0
-102 21 0
48 -21 102 0
103 -102 0
103 53 0
102 -53 -103 0
101 103 -104 0
-101 -103 -104 0
101 -103 104 0
-101 103 104 0
105 -98 0
105 104 0
98 -104 -105 0
-96 -105 -106 0
96 105 -106 0
-96 105 106 0
96 -105 106 0
107 -76 0
107 106 0
76 -106 -107 0
36 -107 -108 0
-36 107 -108 0
36 107 108 0
-36 -107 108 0
4 21 -109 0
-4 -21 -109 0
4 -21 109 0
-4 21 109 0
110 -109 0
110 77 0
109 -77 -110 0
111 108 0
111 110 0
-108 -110 -111 0
63 111 -112 0
-63 -111 -112 0
63 -111 112 0
-63 111 112 0
-113 25 0
-113 -17 0
-25 17 113 0
-113 -99 -114 0
113 99 -114 0
-113 99 114 0
113 -99 114 0
24 -114 -115 0
-24 114 -115 0
24 114 115 0
-24 -114 115 0
116 -57 0
116 -49 0
57 49 -116 0
117 35 0
117 -116 0
-35 116 -117 0
-118 -115 0
-118 -117 0
115 117 118 0
119 -58 0
119 22 0
58 -22 -119 0
20 -120 -121 0
-20 120 -121 0
20 120 121 0
-20 -120 121 0
122 -119 0
122 -121 0
119 121 -122 0
121 -24 -123 0
-121 24 -123 0
121 24 123 0
-121 -24 123 0
123 -24 -124 0
-123 24 -124 0
123 24 124 0
-123 -24 124 0
-125 -122 0
-125 124 0
122 -124 125 0
125 -93 -126 0
-125 93 -126 0
125 93 126 0
-125 -93 126 0
-118 126 -127 0
118 -126 -127 0
-118 -126 127 0
118 126 127 0
54 39 -128 0
-54 -39 -128 0
54 -39 128 0
-54 39 128 0
129 128 0
129 16 0
-128 -16 -129 0
130 64 0
130 -3 0
-64 3 -130 0
129 130 -131 0
-129 -130 -131 0
129 -130 131 0
-129 130 131 0
-132 11 0
-132 -131 0
-11 131 132 0
133 -41 0
133 132 0
41 -132 -133 0
134 -7 0
134 -50 0
7 50 -134 0
-49 2 -135 0
49 -2 -135 0
-49 -2 135 0
49 2 135 0
-136 53 0
-136 -11 0
-53 11 136 0
38 136 -137 0
-38 -136 -137 0
38 -136 137 0
-38 136 137 0
1 137 -138 0
-1 -137 -138 0
1 -137 138 0
-1 137 138 0
120 138 -139 0
-120 -138 -139 0
120 -138 139 0
-120 138 139 0
140 -135 0
140 139 0
135 -139 -140 0
134 140 -141 0
-134 -140 -141 0
134 -140 141 0
-134 140 141 0
-133 -141 -142 0
133 141 -142 0
-133 141 142 0
133 -141 142 0
-127 142 -143 0
127 -142 -143 0
-127 -142 143 0
127 142 143 0
-144 36 0
-144 124 0
-36 -124 144 0
136 -144 -145 0
-136 144 -145 0
136 144 145 0
-136 -144 145 0
-146 130 0
-146 -145 0
-130 145 146 0
147 -27 0
147 -73 0
27 73 -147 0
148 -147 0
148 -59 0
147 59 -148 0
149 -146 0
149 148 0
146 -148 -149 0
143 -149 -150 0
-143 149 -150 0
143 149 150 0
-143 -149 150 0
-151 34 0
-151 66 0
-34 -66 151 0
152 -103 0
152 -151 0
103 151 -152 0
-153 89 0
-153 152 0
-89 -152 153 0
154 21 0
154 -57 0
-21 57 -154 0
-69 -154 -155 0
69 154 -155 0
-69 154 155 0
69 -154 155 0
-155 137 -156 0
155 -137 -156 0
-155 -137 156 0
155 137 156 0
157 -153 0
157 -156 0
153 156 -157 0
158 -20 0
158 12 0
20 -12 -158 0
-159 -157 0
-159 158 0
157 -158 159 0
-160 -150 0
-160 -159 0
150 159 160 0
-161 112 0
-161 160 0
-112 -160 161 0
162 -35 0
162 -121 0
35 121 -162 0
-103 162 -163 0
103 -162 -163 0
-103 -162 163 0
103 162 163 0
-102 -163 -164 0
102 163 -164 0
-102 163 164 0
102 -163 164 0
-165 -124 0
-165 -55 0
124 55 165 0
166 37 0
166 -21 0
-37 21 -166 0
-64 -166 -167 0
64 166 -167 0
-64 166 167 0
64 -166 167 0
-167 58 -168 0
167 -58 -168 0
-167 -58 168 0
167 58 168 0
-169 -109 0
-169 -6 0
109 6 169 0
168 169 -170 0
-168 -169 -170 0
168 -169 170 0
-168 169 170 0
-171 3 0
-171 -21 0
-3 21 171 0
-172 170 0
-172 -171 0
-170 171 172 0
173 -165 0
173 -172 0
165 172 -173 0
174 164 0
174 -173 0
-164 173 -174 0
-1 -64 -175 0
1 64 -175 0
-1 64 175 0
1 -64 175 0
176 99 0
176 -175 0
-99 175 -176 0
-177 176 0
-177 99 0
-176 -99 177 0
-176 177 -178 0
176 -177 -178 0
-176 -177 178 0
176 177 178 0
179 22 0
179 -85 0
-22 85 -179 0
-178 179 -180 0
178 -179 -180 0
-178 -179 180 0
178 179 180 0
181 174 0
181 180 0
-174 -180 -181 0
182 121 0
182 73 0
-121 -73 -182 0
-171 182 -183 0
171 -182 -183 0
-171 -182 183 0
171 182 183 0
-184 -37 0
-184 183 0
37 -183 184 0
-100 184 -185 0
100 -184 -185 0
-100 -184 185 0
100 184 185 0
-186 -34 0
-186 4 0
34 -4 186 0
-187 87 0
-187 186 0
-87 -186 187 0
-188 187 0
-188 -72 0
-187 72 188 0
188 -78 -189 0
-188 78 -189 0
188 78 189 0
-188 -78 189 0
18 189 -190 0
-18 -189 -190 0
18 -189 190 0
-18 189 190 0
191 96 0
191 -190 0
-96 190 -191 0
-192 -185 0
-192 191 0
185 -191 192 0
-122 163 -193 0
122 -163 -193 0
-122 -163 193 0
122 163 193 0
194 -89 0
194 -41 0
89 41 -194 0
195 -193 0
195 -194 0
193 194 -195 0
196 192 0
196 195 0
-192 -195 -196 0
197 -181 0
197 -196 0
181 196 -197 0
-47 18 -198 0
47 -18 -198 0
-47 -18 198 0
47 18 198 0
198 -162 -199 0
-198 162 -199 0
198 162 199 0
-198 -162 199 0
-200 30 0
-200 -175 0
-30 175 200 0
38 47 -201 0
-38 -47 -201 0
38 -47 201 0
-38 47 201 0
200 -201 -202 0
-200 201 -202 0
200 201 202 0
-200 -201 202 0
-203 -17 0
-203 -36 0
17 36 203 0
203 -14 -204 0
-203 14 -204 0
203 14 204 0
-203 -14 204 0
205 -139 0
205 29 0
139 -29 -205 0
-206 129 0
-206 -201 0
-129 201 206 0
-207 177 0
-207 206 0
-177 -206 207 0
205 -207 -208 0
-205 207 -208 0
205 207 208 0
-205 -207 208 0
209 -204 0
209 208 0
204 -208 -209 0
-202 -209 -210 0
202 209 -210 0
-202 209 210 0
202 -209 210 0
-199 -210 -211 0
199 210 -211 0
-199 210 211 0
199 -210 211 0
30 -203 -212 0
-30 203 -212 0
30 203 212 0
-30 -203 212 0
21 72 -213 0
-21 -72 -213 0
21 -72 213 0
-21 72 213 0
214 -213 0
214 16 0
213 -16 -214 0
-215 214 0
-215 18 0
-214 -18 215 0
-215 130 -216 0
215 -130 -216 0
-215 -130 216 0
215 130 216 0
-216 39 -217 0
216 -39 -217 0
-216 -39 217 0
216 39 217 0
-218 -212 0
-218 -217 0
212 217 218 0
-219 -218 0
-219 -61 0
218 61 219 0
-220 211 0
-220 -219 0
-211 219 220 0
-221 -51 0
-221 -2 0
51 2 221 0
-222 -221 0
-222 120 0
221 -120 222 0
-223 -64 0
-223 -222 0
64 222 223 0
-99 223 -224 0
99 -223 -224 0
-99 -223 224 0
99 223 224 0
225 220 0
225 224 0
-220 -224 -225 0
-226 11 0
-226 -135 0
-11 135 226 0
227 -92 0
227 -94 0
92 94 -227 0
-228 -226 0
-228 227 0
226 -227 228 0
-229 193 0
-229 -124 0
-193 124 229 0
-230 -228 0
-230 229 0
228 -229 230 0
-231 -225 0
-231 -230 0
225 230 231 0
-232 -197 0
-232 -231 0
197 231 232 0
-233 -161 0
-233 232 0
161 -232 233 0
-234 103 0
-234 1 0
-103 -1 234 0
235 234 0
235 -90 0
-234 90 -235 0
-236 -81 0
-236 152 0
81 -152 236 0
237 26 0
237 236 0
-26 -236 -237 0
235 -237 -238 0
-235 237 -238 0
235 237 238 0
-235 -237 238 0
-239 238 0
-239 -73 0
-238 73 239 0
240 69 0
240 124 0
-69 -124 -240 0
240 -87 -241 0
-240 87 -241 0
240 87 241 0
-240 -87 241 0
92 241 -242 0
-92 -241 -242 0
92 -241 242 0
-92 241 242 0
243 -47 0
243 -2 0
47 2 -243 0
-243 -116 -244 0
243 116 -244 0
-243 116 244 0
243 -116 244 0
242 -244 -245 0
-242 244 -245 0
242 244 245 0
-242 -244 245 0
247 245 0
247 -246 0
-245 246 -247 0
38 -12 -248 0
-38 12 -248 0
38 12 248 0
-38 -12 248 0
-249 248 0
-249 217 0
-248 -217 249 0
250 3 0
250 -249 0
-3 249 -250 0
-251 -250 0
-251 -217 0
250 217 251 0
-252 -247 0
-252 -251 0
247 251 252 0
-239 -252 -253 0
239 252 -253 0
-239 252 253 0
239 -252 253 0
-78 -6 -254 0
78 6 -254 0
-78 6 254 0
78 -6 254 0
-40 -254 -255 0
40 254 -255 0
-40 254 255 0
40 -254 255 0
255 -254 -256 0
-255 254 -256 0
255 254 256 0
-255 -254 256 0
-257 253 0
-257 256 0
-253 -256 257 0
32 -87 -258 0
-32 87 -258 0
32 87 258 0
-32 -87 258 0
-259 -85 0
-259 -176 0
85 176 259 0
-260 -138 0
-260 -121 0
138 121 260 0
-116 -73 -261 0
116 73 -261 0
-116 73 261 0
116 -73 261 0
262 260 0
262 261 0
-260 -261 -262 0
-263 -259 0
-263 262 0
259 -262 263 0
-264 258 0
-264 -263 0
-258 263 264 0
265 123 0
265 124 0
-123 -124 -265 0
-64 16 -266 0
64 -16 -266 0
-64 -16 266 0
64 16 266 0
-84 267 0
84 267 0
268 -266 0
268 267 0
266 -267 -268 0
269 265 0
269 268 0
-265 -268 -269 0
3 53 -270 0
-3 -53 -270 0
3 -53 270 0
-3 53 270 0
39 -270 -271 0
-39 270 -271 0
39 270 271 0
-39 -270 271 0
272 271 0
272 -234 0
-271 234 -272 0
273 77 0
273 -88 0
-77 88 -273 0
-274 -272 0
-274 273 0
272 -273 274 0
275 43 0
275 274 0
-43 -274 -275 0
275 51 -276 0
-275 -51 -276 0
275 -51 276 0
-275 51 276 0
277 -151 0
277 104 0
151 -104 -277 0
-276 277 -278 0
276 -277 -278 0
-276 -277 278 0
276 277 278 0
279 269 0
279 278 0
-269 -278 -279 0
-264 -279 -280 0
264 279 -280 0
-264 279 280 0
264 -279 280 0
281 -257 0
281 -280 0
257 280 -281 0
135 52 -282 0
-135 -52 -282 0
135 -52 282 0
-135 52 282 0
22 106 -283 0
-22 -106 -283 0
22 -106 283 0
-22 106 283 0
-282 -283 -284 0
282 283 -284 0
-282 283 284 0
282 -283 284 0
-285 136 0
-285 29 0
-136 -29 285 0
286 -156 0
286 285 0
156 -285 -286 0
284 286 -287 0
-284 -286 -287 0
284 -286 287 0
-284 286 287 0
288 -1 0
288 213 0
1 -213 -288 0
-288 -4 -289 0
288 4 -289 0
-288 4 289 0
288 -4 289 0
-290 5 0
-290 -289 0
-5 289 290 0
-291 287 0
-291 -290 0
-287 290 291 0
-292 -42 0
-292 -58 0
42 58 292 0
-293 -28 0
-293 103 0
28 -103 293 0
-294 71 0
-294 -244 0
-71 244 294 0
295 293 0
295 294 0
-293 -294 -295 0
-296 -25 0
-296 -101 0
25 101 296 0
295 -296 -297 0
-295 296 -297 0
295 296 297 0
-295 -296 297 0
-298 292 0
-298 297 0
-292 -297 298 0
-299 -21 0
-299 -84 0
21 84 299 0
300 299 0
300 205 0
-299 -205 -300 0
-301 137 0
-301 213 0
-137 -213 301 0
302 -103 0
302 67 0
103 -67 -302 0
301 302 -303 0
-301 -302 -303 0
301 -302 303 0
-301 302 303 0
304 14 0
304 -227 0
-14 227 -304 0
-305 303 0
-305 -304 0
-303 304 305 0
-306 -300 0
-306 305 0
300 -305 306 0
298 306 -307 0
-298 -306 -307 0
298 -306 307 0
-298 306 307 0
308 291 0
308 307 0
-291 -307 -308 0
-309 -281 0
-309 -308 0
281 308 309 0
310 -243 0
310 -236 0
243 236 -310 0
310 -3 -311 0
-310 3 -311 0
310 3 311 0
-310 -3 311 0
-57 -240 -312 0
57 240 -312 0
-57 240 312 0
57 -240 312 0
-313 -34 0
-313 -312 0
34 312 313 0
-314 -311 0
-314 313 0
311 -313 314 0
-68 -254 -315 0
68 254 -315 0
-68 254 315 0
68 -254 315 0
316 314 0
316 -315 0
-314 315 -316 0
94 47 -317 0
-94 -47 -317 0
94 -47 317 0
-94 47 317 0
-318 316 0
-318 -317 0
-316 317 318 0
-319 105 0
-319 -190 0
-105 190 319 0
320 -3 0
320 -6 0
3 6 -320 0
-321 -213 0
-321 -52 0
213 52 321 0
322 320 0
322 321 0
-320 -321 -322 0
222 -322 -323 0
-222 322 -323 0
222 322 323 0
-222 -322 323 0
324 319 0
324 -323 0
-319 323 -324 0
-325 170 0
-325 54 0
-170 -54 325 0
-209 -325 -326 0
209 325 -326 0
-209 325 326 0
209 -325 326 0
168 -326 -327 0
-168 326 -327 0
168 326 327 0
-168 -326 327 0
328 15 0
328 -320 0
-15 320 -328 0
-327 328 -329 0
327 -328 -329 0
-327 -328 329 0
327 328 329 0
-330 -80 0
-330 2 0
80 -2 330 0
331 -329 0
331 330 0
329 -330 -331 0
-65 188 -332 0
65 -188 -332 0
-65 -188 332 0
65 188 332 0
-331 -332 -333 0
331 332 -333 0
-331 332 333 0
331 -332 333 0
-334 -324 0
-334 -333 0
324 333 334 0
318 334 -335 0
-318 -334 -335 0
318 -334 335 0
-318 334 335 0
-70 59 -336 0
70 -59 -336 0
-70 -59 336 0
70 59 336 0
-5 69 -337 0
5 -69 -337 0
-5 -69 337 0
5 69 337 0
-49 -337 -338 0
49 337 -338 0
-49 337 338 0
49 -337 338 0
-166 36 -339 0
166 -36 -339 0
-166 -36 339 0
166 36 339 0
-340 -320 0
-340 339 0
320 -339 340 0
-341 338 0
-341 -340 0
-338 340 341 0
336 341 -342 0
-336 -341 -342 0
336 -341 342 0
-336 341 342 0
343 -335 0
343 342 0
335 -342 -343 0
-339 240 -344 0
339 -240 -344 0
-339 -240 344 0
339 240 344 0
64 344 -345 0
-64 -344 -345 0
64 -344 345 0
-64 344 345 0
1 48 -346 0
-1 -48 -346 0
1 -48 346 0
-1 48 346 0
-347 77 0
-347 69 0
-77 -69 347 0
348 -120 0
348 -87 0
120 87 -348 0
349 25 0
349 348 0
-25 -348 -349 0
-347 -349 -350 0
347 349 -350 0
-347 349 350 0
347 -349 350 0
-351 54 0
-351 -86 0
-54 86 351 0
352 -163 0
352 -67 0
163 67 -352 0
-353 -351 0
-353 -352 0
351 352 353 0
350 353 -354 0
-350 -353 -354 0
350 -353 354 0
-350 353 354 0
355 346 0
355 -354 0
-346 354 -355 0
-356 -345 0
-356 355 0
345 -355 356 0
-236 244 -357 0
236 -244 -357 0
-236 -244 357 0
236 244 357 0
358 357 0
358 -243 0
-357 243 -358 0
-359 97 0
-359 -136 0
-97 136 359 0
-135 36 -360 0
135 -36 -360 0
-135 -36 360 0
135 36 360 0
-361 -359 0
-361 360 0
359 -360 361 0
-362 358 0
-362 -361 0
-358 361 362 0
363 -356 0
363 -362 0
356 362 -363 0
-364 -254 0
-364 -78 0
254 78 364 0
-365 -130 0
-365 364 0
130 -364 365 0
139 -365 -366 0
-139 365 -366 0
139 365 366 0
-139 -365 366 0
367 288 0
367 -89 0
-288 89 -367 0
-366 367 -368 0
366 -367 -368 0
-366 -367 368 0
366 367 368 0
-369 24 0
-369 -274 0
-24 274 369 0
370 -369 0
370 -218 0
369 218 -370 0
-368 -370 -371 0
368 370 -371 0
-368 370 371 0
368 -370 371 0
-169 -175 -372 0
169 175 -372 0
-169 175 372 0
169 -175 372 0
-371 372 -373 0
371 -372 -373 0
-371 -372 373 0
371 372 373 0
-374 -60 0
-374 -288 0
60 288 374 0
375 373 0
375 -374 0
-373 374 -375 0
376 -363 0
376 -375 0
363 375 -376 0
-377 15 0
-377 -235 0
-15 235 377 0
240 52 -378 0
-240 -52 -378 0
240 -52 378 0
-240 52 378 0
-379 -49 0
-379 -378 0
49 378 379 0
380 377 0
380 -379 0
-377 379 -380 0
381 -77 0
381 236 0
77 -236 -381 0
-382 -18 0
-382 381 0
18 -381 382 0
383 382 0
383 -208 0
-382 208 -383 0
-384 364 0
-384 186 0
-364 -186 384 0
385 384 0
385 -294 0
-384 294 -385 0
-386 -383 0
-386 -385 0
383 385 386 0
-387 -380 0
-387 -386 0
380 386 387 0
388 -376 0
388 -387 0
376 387 -388 0
40 130 -389 0
-40 -130 -389 0
40 -130 389 0
-40 130 389 0
-12 -162 -390 0
12 162 -390 0
-12 162 390 0
12 -162 390 0
-101 390 -391 0
101 -390 -391 0
-101 -390 391 0
101 390 391 0
-389 391 -392 0
389 -391 -392 0
-389 -391 392 0
389 391 392 0
393 184 0
393 -173 0
-184 173 -393 0
394 -392 0
394 -393 0
392 393 -394 0
395 -388 0
395 394 0
388 -394 -395 0
-343 -395 -396 0
343 395 -396 0
-343 395 396 0
343 -395 396 0
397 -309 0
397 396 0
309 -396 -397 0
398 233 0
398 -397 0
-233 397 -398 0
-399 -145 0
-399 27 0
145 -27 399 0
-400 -399 0
-400 271 0
399 -271 400 0
-351 -88 -401 0
351 88 -401 0
-351 88 401 0
351 -88 401 0
-402 -401 0
-402 38 0
401 -38 402 0
400 -402 -403 0
-400 402 -403 0
400 402 403 0
-400 -402 403 0
404 10 0
404 -8 0
-10 8 -404 0
-405 -271 0
-405 404 0
271 -404 405 0
-406 -86 0
-406 -405 0
86 405 406 0
-403 406 -407 0
403 -406 -407 0
-403 -406 407 0
403 406 407 0
408 -74 0
408 -221 0
74 221 -408 0
-409 22 0
-409 89 0
-22 -89 409 0
-410 -409 0
-410 -1 0
409 1 410 0
-411 -241 0
-411 -410 0
241 410 411 0
412 408 0
412 -411 0
-408 411 -412 0
413 -36 0
413 -213 0
36 213 -413 0
77 413 -414 0
-77 -413 -414 0
77 -413 414 0
-77 413 414 0
24 64 -415 0
-24 -64 -415 0
24 -64 415 0
-24 64 415 0
-275 240 -416 0
275 -240 -416 0
-275 -240 416 0
275 240 416 0
417 415 0
417 416 0
-415 -416 -417 0
-414 -417 -418 0
414 417 -418 0
-414 417 418 0
414 -417 418 0
419 123 0
419 -405 0
-123 405 -419 0
-420 419 0
-420 349 0
-419 -349 420 0
-421 73 0
-421 420 0
-73 -420 421 0
422 418 0
422 -421 0
-418 421 -422 0
423 -168 0
423 214 0
168 -214 -423 0
-424 422 0
-424 423 0
-422 -423 424 0
425 -412 0
425 -424 0
412 424 -425 0
426 -170 0
426 102 0
170 -102 -426 0
-22 -426 -427 0
22 426 -427 0
-22 426 427 0
22 -426 427 0
19 144 -428 0
-19 -144 -428 0
19 -144 428 0
-19 144 428 0
38 26 -429 0
-38 -26 -429 0
38 -26 429 0
-38 26 429 0
-430 -428 0
-430 429 0
428 -429 430 0
-431 -22 0
-431 64 0
22 -64 431 0
-430 431 -432 0
430 -431 -432 0
-430 -431 432 0
430 431 432 0
-433 -427 0
-433 432 0
427 -432 433 0
434 -117 0
434 -404 0
117 404 -434 0
-435 -434 0
-435 -71 0
434 71 435 0
-436 -12 0
-436 -435 0
12 435 436 0
437 433 0
437 436 0
-433 -436 -437 0
438 -425 0
438 -437 0
425 437 -438 0
439 -407 0
439 -438 0
407 438 -439 0
13 273 -440 0
-13 -273 -440 0
13 -273 440 0
-13 273 440 0
441 -30 0
441 -167 0
30 167 -441 0
-442 -378 0
-442 -441 0
378 441 442 0
440 -442 -443 0
-440 442 -443 0
440 442 443 0
-440 -442 443 0
444 -162 0
444 3 0
162 -3 -444 0
445 443 0
445 444 0
-443 -444 -445 0
-285 215 -446 0
285 -215 -446 0
-285 -215 446 0
285 215 446 0
445 -446 -447 0
-445 446 -447 0
445 446 447 0
-445 -446 447 0
-439 447 -448 0
439 -447 -448 0
-439 -447 448 0
439 447 448 0
-7 4 -449 0
7 -4 -449 0
-7 -4 449 0
7 4 449 0
-450 449 0
-450 -344 0
-449 344 450 0
201 182 -451 0
-201 -182 -451 0
201 -182 451 0
-201 182 451 0
-452 -176 0
-452 -50 0
176 50 452 0
-453 452 0
-453 168 0
-452 -168 453 0
-454 -453 0
-454 115 0
453 -115 454 0
-455 -451 0
-455 454 0
451 -454 455 0
97 193 -456 0
-97 -193 -456 0
97 -193 456 0
-97 193 456 0
457 -130 0
457 166 0
130 -166 -457 0
-458 456 0
-458 -457 0
-456 457 458 0
-459 183 0
-459 -153 0
-183 153 459 0
-131 124 -460 0
131 -124 -460 0
-131 -124 460 0
131 124 460 0
-461 222 0
-461 164 0
-222 -164 461 0
-462 -187 0
-462 461 0
187 -461 462 0
460 462 -463 0
-460 -462 -463 0
460 -462 463 0
-460 462 463 0
464 -459 0
464 -463 0
459 463 -464 0
465 -240 -466 0
-465 240 -466 0
465 240 466 0
-465 -240 466 0
-467 -82 0
-467 -466 0
82 466 467 0
101 -175 -468 0
-101 175 -468 0
101 175 468 0
-101 -175 468 0
-469 -28 0
-469 58 0
28 -58 469 0
470 468 0
470 469 0
-468 -469 -470 0
471 -467 0
471 470 0
467 -470 -471 0
472 -25 0
472 -90 0
25 90 -472 0
209 -57 -473 0
-209 57 -473 0
209 57 473 0
-209 -57 473 0
-474 472 0
-474 -473 0
-472 473 474 0
475 -471 0
475 -474 0
471 474 -475 0
-464 -475 -476 0
464 475 -476 0
-464 475 476 0
464 -475 476 0
477 458 0
477 476 0
-458 -476 -477 0
-455 -477 -478 0
455 477 -478 0
-455 477 478 0
455 -477 478 0
479 249 0
479 -268 0
-249 268 -479 0
480 187 0
480 14 0
-187 -14 -480 0
481 -479 0
481 -480 0
479 480 -481 0
99 -81 -482 0
-99 81 -482 0
99 81 482 0
-99 -81 482 0
483 125 0
483 163 0
-125 -163 -483 0
24 483 -484 0
-24 -483 -484 0
24 -483 484 0
-24 483 484 0
485 84 0
485 -175 0
-84 175 -485 0
484 -485 -486 0
-484 485 -486 0
484 485 486 0
-484 -485 486 0
-487 382 0
-487 -137 0
-382 137 487 0
488 486 0
488 -487 0
-486 487 -488 0
482 488 -489 0
-482 -488 -489 0
482 -488 489 0
-482 488 489 0
-490 -60 0
-490 20 0
60 -20 490 0
491 490 0
491 299 0
-490 -299 -491 0
-491 322 -492 0
491 -322 -492 0
-491 -322 492 0
491 322 492 0
352 18 -493 0
-352 -18 -493 0
352 -18 493 0
-352 18 493 0
-494 492 0
-494 -493 0
-492 493 494 0
209 128 -495 0
-209 -128 -495 0
209 -128 495 0
-209 128 495 0
-6 189 -496 0
6 -189 -496 0
-6 -189 496 0
6 189 496 0
-497 495 0
-497 496 0
-495 -496 497 0
498 71 0
498 -462 0
-71 462 -498 0
497 498 -499 0
-497 -498 -499 0
497 -498 499 0
-497 498 499 0
500 -74 0
500 -102 0
74 102 -500 0
501 -499 0
501 500 0
499 -500 -501 0
-502 494 0
-502 -501 0
-494 501 502 0
503 -489 0
503 502 0
489 -502 -503 0
504 481 0
504 503 0
-481 -503 -504 0
-505 -295 0
-505 -71 0
295 71 505 0
505 -399 -506 0
-505 399 -506 0
505 399 506 0
-505 -399 506 0
504 -506 -507 0
-504 506 -507 0
504 506 507 0
-504 -506 507 0
200 69 -508 0
-200 -69 -508 0
200 -69 508 0
-200 69 508 0
509 507 0
509 508 0
-507 -508 -509 0
-510 153 0
-510 -95 0
-153 95 510 0
511 509 0
511 -510 0
-509 510 -511 0
512 -478 0
512 -511 0
478 511 -512 0
513 166 0
513 -115 0
-166 115 -513 0
514 104 0
514 348 0
-104 -348 -514 0
-515 513 0
-515 514 0
-513 -514 515 0
516 512 0
516 515 0
-512 -515 -516 0
-517 39 0
-517 53 0
-39 -53 517 0
-518 -517 0
-518 -41 0
517 41 518 0
322 -311 -519 0
-322 311 -519 0
322 311 519 0
-322 -311 519 0
518 519 -520 0
-518 -519 -520 0
518 -519 520 0
-518 519 520 0
521 -222 0
521 -81 0
222 81 -521 0
-58 -222 -522 0
58 222 -522 0
-58 222 522 0
58 -222 522 0
523 152 0
523 522 0
-152 -522 -523 0
524 7 0
524 43 0
-7 -43 -524 0
-525 523 0
-525 -524 0
-523 524 525 0
275 10 -526 0
-275 -10 -526 0
275 -10 526 0
-275 10 526 0
-527 -525 0
-527 526 0
525 -526 527 0
528 -521 0
528 527 0
521 -527 -528 0
-529 465 0
-529 203 0
-465 -203 529 0
-530 88 0
-530 70 0
-88 -70 530 0
-531 -529 0
-531 -530 0
529 530 531 0
532 528 0
532 -531 0
-528 531 -532 0
533 -44 0
533 -369 0
44 369 -533 0
534 -533 0
534 435 0
533 -435 -534 0
-535 -33 0
-535 234 0
33 -234 535 0
-536 -47 0
-536 28 0
47 -28 536 0
15 -536 -537 0
-15 536 -537 0
15 536 537 0
-15 -536 537 0
538 535 0
538 -537 0
-535 537 -538 0
534 538 -539 0
-534 -538 -539 0
534 -538 539 0
-534 538 539 0
540 -114 0
540 -36 0
114 36 -540 0
541 539 0
541 540 0
-539 -540 -541 0
-542 532 0
-542 -541 0
-532 541 542 0
-543 80 0
-543 -71 0
-80 71 543 0
123 -117 -544 0
-123 117 -544 0
123 117 544 0
-123 -117 544 0
-545 -544 0
-545 50 0
544 -50 545 0
382 545 -546 0
-382 -545 -546 0
382 -545 546 0
-382 545 546 0
547 99 0
547 -270 0
-99 270 -547 0
-548 -547 0
-548 12 0
547 -12 548 0
-188 299 -549 0
188 -299 -549 0
-188 -299 549 0
188 299 549 0
-550 548 0
-550 549 0
-548 -549 550 0
-546 550 -551 0
546 -550 -551 0
-546 -550 551 0
546 550 551 0
543 551 -552 0
-543 -551 -552 0
543 -551 552 0
-543 551 552 0
-168 -164 -553 0
168 164 -553 0
-168 164 553 0
168 -164 553 0
554 -552 0
554 553 0
552 -553 -554 0
-555 36 0
-555 169 0
-36 -169 555 0
-555 536 -556 0
555 -536 -556 0
-555 -536 556 0
555 536 556 0
-557 -221 0
-557 132 0
221 -132 557 0
-558 -556 0
-558 -557 0
556 557 558 0
559 554 0
559 558 0
-554 -558 -559 0
542 -559 -560 0
-542 559 -560 0
542 559 560 0
-542 -559 560 0
520 560 -561 0
-520 -560 -561 0
520 -560 561 0
-520 560 561 0
-516 561 -562 0
516 -561 -562 0
-516 -561 562 0
516 561 562 0
563 -450 0
563 562 0
450 -562 -563 0
-564 -218 0
-564 378 0
218 -378 564 0
-565 208 0
-565 -491 0
-208 491 565 0
-566 -123 0
-566 213 0
123 -213 566 0
-565 566 -567 0
565 -566 -567 0
-565 -566 567 0
565 566 567 0
-568 -564 0
-568 -567 0
564 567 568 0
-569 240 0
-569 98 0
-240 -98 569 0
569 73 -570 0
-569 -73 -570 0
569 -73 570 0
-569 73 570 0
-570 -208 -571 0
570 208 -571 0
-570 208 571 0
570 -208 571 0
-19 -505 -572 0
19 505 -572 0
-19 505 572 0
19 -505 572 0
-573 83 0
-573 -70 0
-83 70 573 0
572 -573 -574 0
-572 573 -574 0
572 573 574 0
-572 -573 574 0
-571 -574 -575 0
571 574 -575 0
-571 574 575 0
571 -574 575 0
568 575 -576 0
-568 -575 -576 0
568 -575 576 0
-568 575 576 0
-577 11 0
-577 138 0
-11 -138 577 0
578 60 0
578 -55 0
-60 55 -578 0
-577 578 -579 0
577 -578 -579 0
-577 -578 579 0
577 578 579 0
38 -9 -580 0
-38 9 -580 0
38 9 580 0
-38 -9 580 0
580 -254 -581 0
-580 254 -581 0
580 254 581 0
-580 -254 581 0
-582 114 0
-582 -581 0
-114 581 582 0
-579 -582 -583 0
579 582 -583 0
-579 582 583 0
579 -582 583 0
-584 88 0
-584 40 0
-88 -40 584 0
-583 584 -585 0
583 -584 -585 0
-583 -584 585 0
583 584 585 0
-586 576 0
-586 -585 0
-576 585 586 0
587 452 0
587 244 0
-452 -244 -587 0
588 151 0
588 254 0
-151 -254 -588 0
589 39 0
589 218 0
-39 -218 -589 0
591 -590 0
591 -169 0
590 169 -591 0
592 -589 0
592 591 0
589 -591 -592 0
-588 592 -593 0
588 -592 -593 0
-588 -592 593 0
588 592 593 0
-594 587 0
-594 -593 0
-587 593 594 0
586 -594 -595 0
-586 594 -595 0
586 594 595 0
-586 -594 595 0
596 563 0
596 595 0
-563 -595 -596 0
448 -596 -597 0
-448 596 -597 0
448 596 597 0
-448 -596 597 0
-598 -398 0
-598 -597 0
398 597 598 0
598 0
